instances/A-n11-k3-m2-b3_v2_ampl_.txt
set K:= 1	2	3;
set C_H:= 1	2	3	4	5;
set C_S:= 6	7	8;
set C_F:= 9	10	11;
set M:= 12	13	14	15;
set L_B:= 16	17	18;
set A1:=
(0,*) 1 2 3 4 5 9 10 11 12 13 14 15 16 17 18
(1,*) 0 2 3 4 5 9 10 11 12 13 14 15 16 17 18
(2,*) 0 1 3 4 5 9 10 11 12 13 14 15 16 17 18
(3,*) 0 1 2 4 5 9 10 11 12 13 14 15 16 17 18
(4,*) 0 1 2 3 5 9 10 11 12 13 14 15 16 17 18
(5,*) 0 1 2 3 4 9 10 11 12 13 14 15 16 17 18
(9,*) 0 1 2 3 4 5 10 11 12 13 14 15 16 17 18
(10,*) 0 1 2 3 4 5 9 11 12 13 14 15 16 17 18
(11,*) 0 1 2 3 4 5 9 10 12 13 14 15 16 17 18
(12,*) 0 1 2 3 4 5 9 10 11 13 14 15 16 17 18
(13,*) 0 1 2 3 4 5 9 10 11 12 14 15 16 17 18
(14,*) 0 1 2 3 4 5 9 10 11 12 13 15 16 17 18
(15,*) 0 1 2 3 4 5 9 10 11 12 13 14 16 17 18
(16,*) 0 1 2 3 4 5 9 10 11 12 13 14 15 17 18
(17,*) 0 1 2 3 4 5 9 10 11 12 13 14 15 16 18
(18,*) 0 1 2 3 4 5 9 10 11 12 13 14 15 16 17
;
set A2:=
(12,*) 13
(13,*) 12
(14,*) 15
(15,*) 14
;
param BigM:=99999;
param n:= 3;
param d:=
1	14
2	19
3	18
4	3
5	2
6	1
7	2
8	4
9	24
10	8
11	14
;
param Q:=100;
param w:=
[12,*] 13 0.5
[13,*] 12 0.5
[14,*] 15 0.5
[15,*] 14 0.5
;
param V:=
[12,*] 13 98
[13,*] 12 98
[14,*] 15 99
[15,*] 14 99
;
param e:
	12	13	14	15	16	17	18:=
6	0	0	0	0	1	0	0	
7	0	0	0	0	0	1	0	
8	0	0	0	0	0	1	0	
9	0	0	0	0	0	1	0	
10	0	0	0	0	1	0	0	
11	0	0	0	0	0	1	0	
;
param p:=
1	3
2	3
3	3
;
param G:=
12	98
13	98
14	82
15	99
16	85
17	99
18	93
;
param s:=
0	0
1	10
2	10
3	10
4	10
5	10
9	10
10	10
11	10
12	10
13	10
14	10
15	10
16	10
17	10
18	10
;
param t:
	0	1	2	3	4	5	6	7	8	9	10	11	12	13	14	15	16	17	18:=
0	0.0	101.41	97.58	25.71	27.02	62.29	76.84	21.1	84.17	73.82	79.23	16.28	64.94	61.19	20.81	83.49	52.5	25.5	42.06
1	101.41	0.0	8.54	92.57	74.41	61.85	26.08	87.46	32.0	88.28	72.03	94.34	88.02	79.83	98.41	20.62	48.92	76.22	63.95
2	97.58	8.54	0.0	86.95	70.77	63.39	25.71	82.42	35.9	80.1	75.66	89.4	80.16	81.5	96.25	14.42	45.45	72.14	58.52
3	25.71	92.57	86.95	0.0	28.16	70.6	71.57	8.94	83.49	48.26	90.48	9.49	39.32	75.66	43.57	72.56	46.87	23.77	28.64
4	27.02	74.41	70.77	28.16	0.0	42.45	49.93	19.42	58.52	64.5	62.39	24.02	56.86	48.6	29.27	56.85	25.5	4.47	20.02
5	62.29	61.85	63.39	70.6	42.45	0.0	38.01	61.85	31.76	99.09	20.81	65.76	93.24	18.11	48.47	55.23	35.61	46.84	52.2
6	76.84	26.08	25.71	71.57	49.93	38.01	0.0	65.19	17.2	79.48	52.5	71.69	76.66	56.08	72.47	18.03	25.08	52.35	43.57
7	21.1	87.46	82.42	8.94	19.42	61.85	65.19	0.0	76.12	53.6	81.6	7.07	44.92	66.73	36.25	68.01	40.16	15.13	24.08
8	84.17	32.0	35.9	83.49	58.52	31.76	17.2	76.12	0.0	96.25	40.05	82.0	92.97	49.04	75.6	33.6	37.0	61.85	57.08
9	73.82	88.28	80.1	48.26	64.5	99.09	79.48	53.6	96.25	0.0	119.75	57.56	9.0	110.75	89.49	69.05	64.2	60.83	47.51
10	79.23	72.03	75.66	90.48	62.39	20.81	52.5	81.6	40.05	119.75	0.0	84.9	114.02	19.92	62.29	70.52	55.87	66.85	73.01
11	16.28	94.34	89.4	9.49	24.02	65.76	71.69	7.07	82.0	57.56	84.9	0.0	48.66	68.94	34.41	75.0	46.62	20.22	31.14
12	64.94	88.02	80.16	39.32	56.86	93.24	76.66	44.92	92.97	9.0	114.02	48.66	0.0	104.0	80.99	68.07	59.17	53.0	41.11
13	61.19	79.83	81.5	75.66	48.6	18.11	56.08	66.73	49.04	110.75	19.92	68.94	104.0	0.0	43.0	73.06	50.16	53.01	63.25
14	20.81	98.41	96.25	43.57	29.27	48.47	72.47	36.25	75.6	89.49	62.29	34.41	80.99	43.0	0.0	83.24	51.43	31.0	49.09
15	83.49	20.62	14.42	72.56	56.85	55.23	18.03	68.01	33.6	69.05	70.52	75.0	68.07	73.06	83.24	0.0	31.91	58.0	44.1
16	52.5	48.92	45.45	46.87	25.5	35.61	25.08	40.16	37.0	64.2	55.87	46.62	59.17	50.16	51.43	31.91	0.0	27.46	20.22
17	25.5	76.22	72.14	23.77	4.47	46.84	52.35	15.13	61.85	60.83	66.85	20.22	53.0	53.01	31.0	58.0	27.46	0.0	18.25
18	42.06	63.95	58.52	28.64	20.02	52.2	43.57	24.08	57.08	47.51	73.01	31.14	41.11	63.25	49.09	44.1	20.22	18.25	0.0
;
