ampl_outputs/A-n11-k3-m2-b3_v2_ampl_.txt.out
Gurobi 12.0.1:   lim:time = 28800
  mip:bestbound = 1
Set parameter LogToConsole to value 1
  tech:outlev = 1
Set parameter InfUnbdInfo to value 1
Gurobi Optimizer version 12.0.1 build v12.0.1rc0 (win64 - Windows 11.0 (22631.2))

CPU model: Intel(R) Core(TM) i7-10700 CPU @ 2.90GHz, instruction set [SSE2|AVX|AVX2]
Thread count: 8 physical cores, 16 logical processors, using up to 16 threads

Non-default parameters:
TimeLimit  28800
InfUnbdInfo  1

Optimize a model with 387 rows, 979 columns and 4569 nonzeros
Model fingerprint: 0xce24de30
Model has 7 quadratic objective terms
Model has 10 quadratic constraints
Model has 294 simple general constraints
  294 AND
Variable types: 19 continuous, 960 integer (0 binary)
Coefficient statistics:
  Matrix range     [1e+00, 1e+05]
  QMatrix range    [4e+00, 2e+01]
  QLMatrix range   [1e+00, 2e+01]
  Objective range  [2e+01, 3e+02]
  QObjective range [4e+00, 2e+01]
  Bounds range     [1e+00, 1e+00]
  RHS range        [1e+00, 1e+05]
  QRHS range       [7e+01, 1e+02]
Presolve added 811 rows and 0 columns
Presolve removed 0 rows and 67 columns
Presolve time: 0.03s
Presolved: 1713 rows, 1339 columns, 7905 nonzeros
Variable types: 15 continuous, 1324 integer (1324 binary)

Root relaxation: objective 9.789205e+02, 121 iterations, 0.00 seconds (0.00 work units)

    Nodes    |    Current Node    |     Objective Bounds      |     Work
 Expl Unexpl |  Obj  Depth IntInf | Incumbent    BestBd   Gap | It/Node Time

     0     0  978.92055    0   33          -  978.92055      -     -    0s
H    0     0                    1852.9200000  978.92055  47.2%     -    0s
H    0     0                    1695.1900000  978.92055  42.3%     -    0s
H    0     0                    1687.1800000  978.92055  42.0%     -    0s
H    0     0                    1680.2800000  978.92055  41.7%     -    0s
     0     0 1074.94075    0   23 1680.28000 1074.94075  36.0%     -    0s
H    0     0                    1555.3400000 1074.94075  30.9%     -    0s
H    0     0                    1545.8400000 1074.94075  30.5%     -    0s
H    0     0                    1507.4100000 1074.94075  28.7%     -    0s
     0     0 1074.94075    0   25 1507.41000 1074.94075  28.7%     -    0s
     0     0 1079.33088    0   35 1507.41000 1079.33088  28.4%     -    0s
     0     0 1083.68343    0   38 1507.41000 1083.68343  28.1%     -    0s
     0     0 1113.31333    0   35 1507.41000 1113.31333  26.1%     -    0s
     0     0 1114.39500    0   27 1507.41000 1114.39500  26.1%     -    0s
     0     0 1116.44167    0   48 1507.41000 1116.44167  25.9%     -    0s
H    0     0                    1269.2000000 1116.44167  12.0%     -    0s
     0     0 1116.44167    0   49 1269.20000 1116.44167  12.0%     -    0s
     0     0 1116.44167    0   56 1269.20000 1116.44167  12.0%     -    0s
     0     0 1116.44167    0   33 1269.20000 1116.44167  12.0%     -    0s
     0     0 1116.44167    0   23 1269.20000 1116.44167  12.0%     -    0s
     0     0 1116.44167    0   17 1269.20000 1116.44167  12.0%     -    0s
     0     0 1116.44167    0   40 1269.20000 1116.44167  12.0%     -    0s
     0     0 1116.44167    0   31 1269.20000 1116.44167  12.0%     -    0s
     0     0 1116.44167    0   25 1269.20000 1116.44167  12.0%     -    0s
     0     0 1116.44167    0   44 1269.20000 1116.44167  12.0%     -    0s
     0     0 1116.44167    0   44 1269.20000 1116.44167  12.0%     -    0s
     0     0 1116.44167    0   43 1269.20000 1116.44167  12.0%     -    0s
H    0     0                    1239.9400000 1116.44167  10.0%     -    0s
     0     0 1116.44167    0   51 1239.94000 1116.44167  10.0%     -    0s
     0     0 1119.57667    0   35 1239.94000 1119.57667  9.71%     -    0s
     0     0 1119.71333    0   36 1239.94000 1119.71333  9.70%     -    0s
     0     0 1119.71333    0   40 1239.94000 1119.71333  9.70%     -    0s
     0     0 1119.77000    0   36 1239.94000 1119.77000  9.69%     -    0s
     0     0 1119.77000    0   36 1239.94000 1119.77000  9.69%     -    0s
     0     0 1119.77000    0   31 1239.94000 1119.77000  9.69%     -    0s
     0     0 1120.43000    0   33 1239.94000 1120.43000  9.64%     -    0s
     0     0 1120.43000    0   23 1239.94000 1120.43000  9.64%     -    1s
     0     0 1120.43000    0   28 1239.94000 1120.43000  9.64%     -    1s
     0     0 1120.43000    0   29 1239.94000 1120.43000  9.64%     -    1s
     0     0 1120.43000    0   36 1239.94000 1120.43000  9.64%     -    1s
     0     0 1120.43000    0   52 1239.94000 1120.43000  9.64%     -    1s
     0     0 1120.43000    0   52 1239.94000 1120.43000  9.64%     -    1s
     0     0 1120.43000    0   55 1239.94000 1120.43000  9.64%     -    1s
H    0     0                    1183.0600000 1120.43000  5.29%     -    1s
     0     0 1120.43000    0   36 1183.06000 1120.43000  5.29%     -    1s
     0     0 1120.43000    0   33 1183.06000 1120.43000  5.29%     -    1s
     0     0 1120.43000    0   31 1183.06000 1120.43000  5.29%     -    1s
     0     0 1120.43000    0   23 1183.06000 1120.43000  5.29%     -    1s
     0     0 1120.43000    0   24 1183.06000 1120.43000  5.29%     -    1s
     0     0 1120.43000    0   38 1183.06000 1120.43000  5.29%     -    1s
     0     0 1120.43000    0   40 1183.06000 1120.43000  5.29%     -    1s
     0     0 1120.43000    0   40 1183.06000 1120.43000  5.29%     -    1s
     0     0 1120.43000    0   40 1183.06000 1120.43000  5.29%     -    1s
     0     0 1120.43000    0   35 1183.06000 1120.43000  5.29%     -    1s
     0     0 1120.43000    0   35 1183.06000 1120.43000  5.29%     -    1s
     0     0 1120.43000    0   37 1183.06000 1120.43000  5.29%     -    1s
     0     0 1120.43000    0   31 1183.06000 1120.43000  5.29%     -    1s
     0     0 1120.43000    0   31 1183.06000 1120.43000  5.29%     -    1s
     0     0 1120.43000    0   27 1183.06000 1120.43000  5.29%     -    1s
     0     0 1120.43000    0   26 1183.06000 1120.43000  5.29%     -    1s
     0     0 1120.43000    0   14 1183.06000 1120.43000  5.29%     -    1s
     0     0 1120.43000    0   15 1183.06000 1120.43000  5.29%     -    1s
     0     0 1120.43000    0   42 1183.06000 1120.43000  5.29%     -    1s
     0     0 1120.43000    0   43 1183.06000 1120.43000  5.29%     -    1s
     0     0 1120.43000    0   53 1183.06000 1120.43000  5.29%     -    1s
     0     0 1120.43000    0   49 1183.06000 1120.43000  5.29%     -    1s
     0     2 1120.43000    0   49 1183.06000 1120.43000  5.29%     -    1s

Cutting planes:
  Learned: 1
  Gomory: 2
  Cover: 4
  Implied bound: 21
  Clique: 3
  MIR: 6
  Inf proof: 5
  Zero half: 16
  RLT: 46
  Relax-and-lift: 2
  BQP: 1

Explored 484 nodes (6415 simplex iterations) in 1.60 seconds (0.63 work units)
Thread count was 16 (of 16 available processors)

Solution count 10: 1183.06 1239.94 1269.2 ... 1852.92

Optimal solution found (tolerance 1.00e-04)
Best objective 1.183060000000e+03, best bound 1.183060000000e+03, gap 0.0000%

AMPL MP initial flat model has 685 variables (0 integer, 666 binary);
Objectives: 1 quadratic; 
Constraints:  387 linear; 10 quadratic;
Logical expressions:  294 and;

AMPL MP final model has 979 variables (0 integer, 960 binary);
Objectives: 1 quadratic; 
Constraints:  387 linear; 10 quadratic;
Logical expressions:  294 and;


-----RESULTS INFO-----
running_time:  1.703
TC.best_bound:  1183.06
TC:  1183.0600000000002
MIP Gap (%):  1.92191161431569e-14
=== Vehicle Routes ===
Vehicle 1: 0 → 18
Vehicle 1: 1 → 2
Vehicle 1: 2 → 5
Vehicle 1: 3 → 0
Vehicle 1: 5 → 10
Vehicle 1: 10 → 3
Vehicle 1: 16 → 1
Vehicle 1: 18 → 16
Vehicle 2: 0 → 12
Vehicle 2: 12 → 0
Vehicle 3: 0 → 4
Vehicle 3: 4 → 0

=== Full Vehicle Routes ===
Vehicle 1: 0 → 18 → 16 → 1 → 2 → 5 → 10 → 3 → 0
Vehicle 2: 0 → 12 → 0
Vehicle 3: 0 → 4 → 0
Arc used by MRT line: y variables:
MRT used: 12 → 13
Customer assigment to PL: u variables:
6 16
7 16
8 13
9 18
11 13
Node is served by regular vehicle: g variables:
1
2
3
4
5
10
16
18
12
Customer assigment to Home delivery: gm variables:
1
2
3
4
5
10
Customer's demand delivered to PL: l variables:
6
7
8
9
11
